100
1000
210
210
208
207
203
201
200
199
199
197
196
195
193
192
192
190
189
188
188
187
187
186
185
185
182
182
181
180
180
179
177
171
170
169
168
166
166
165
165
164
164
161
159
153
151
150
150
149
147
147
145
144
142
142
141
139
138
136
136
133
133
130
129
129
125
122
122
121
120
119
119
118
118
115
114
110
108
108
107
105
105
105
102
102
92
92
87
85
83
80
79
78
77
77
76
76
74
72
72
72
